100 1000
19 26 28 35 39 25 32 23 14 22 24 38 22 31 27 12 19 18 37 21 40 12 21 26 12 11 15 37 27 10 35 17 11 12 14 23 37 40 34 10 24 24 27 19 36 35 31 10 32 14 14 33 13 20 26 40 31 28 27 12 32 38 26 12 23 21 12 33 40 37 23 18 14 14 33 36 23 38 24 32 25 22 33 21 23 12 37 33 27 31 23 40 27 24 21 33 34 22 35 15
18 17 8 83 24 5 43 4 49 42 88 20 74 36 58 95 6 16 46 59 40 24 95 6 60 19 76 83 8 15 93 68 100 57 1 70 23 92 16 8 100 55 29 83 43 75 92 92 11 79 23 48 87 52 56 69 21 41 50 20 84 8 49 88 95 59 42 6 74 36 81 35 71 24 32 35 13 48 51 97 3 10 43 73 23 71 6 61 65 88 7 80 75 15 44 57 89 77 11 81



Answer: 3403